542 5
10 10 10 10 10 

0 0 0 0 0 0 4 2 54 106 158 
0 0 0 0 0 0 1 3 
5 8 3 6 3 8 2 9 4 
10 9 8 4 8 10 1 5 
6 7 10 7 9 5 1 6 
9 10 3 6 9 8 1 7 
3 4 4 9 9 8 2 12 8 
7 6 6 6 10 6 1 10 
9 8 10 6 6 7 1 10 
7 9 10 10 9 8 1 11 
9 5 7 6 8 10 1 13 
5 10 10 9 10 10 1 13 
7 7 6 8 7 9 1 14 
3 10 3 4 10 6 2 17 15 
6 10 8 7 9 8 1 16 
5 3 7 9 5 5 2 25 18 
10 6 9 10 4 8 1 18 
2 5 10 9 10 8 1 19 
4 10 7 6 6 10 1 20 
4 10 6 8 5 8 3 27 26 21 
8 9 10 6 6 7 2 32 22 
8 7 8 7 5 8 1 23 
6 5 10 4 6 4 1 24 
7 5 10 8 5 5 2 30 28 
8 7 9 6 10 5 2 30 28 
8 9 10 8 7 8 1 28 
5 7 8 5 10 7 2 32 31 
1 7 9 5 8 10 1 29 
5 3 10 10 9 2 1 31 
6 9 10 8 10 10 3 38 36 34 
9 9 2 6 7 5 1 33 
7 8 5 8 4 10 1 33 
3 5 8 8 5 9 2 36 34 
7 9 5 10 8 9 1 35 
2 10 8 9 10 10 2 44 37 
5 7 9 10 7 6 2 44 40 
6 6 6 7 10 8 1 39 
7 8 7 10 6 10 1 39 
9 10 7 8 4 6 1 40 
1 4 7 10 7 9 1 41 
9 7 6 7 6 10 2 49 42 
2 6 4 8 9 6 1 43 
5 10 9 9 10 5 1 45 
7 8 9 3 6 6 1 45 
9 7 7 6 10 9 1 46 
5 8 10 10 7 5 2 47 282 
8 10 6 10 10 9 1 48 
7 10 8 8 8 9 2 52 50 
7 6 8 4 7 7 2 52 51 
7 9 6 10 7 7 1 51 
5 4 10 10 5 6 1 53 
5 9 7 7 9 6 1 53 
0 0 0 0 0 0 1 542 
0 0 0 0 0 0 1 55 
2 4 2 3 6 5 3 62 56 192 
6 3 9 10 6 10 1 57 
6 10 10 10 5 7 1 58 
6 10 10 6 6 7 1 59 
10 7 5 5 3 4 2 64 60 
10 8 6 6 9 10 1 61 
2 10 5 6 6 9 1 63 
3 4 6 10 9 10 1 63 
2 8 7 6 4 6 1 65 
7 10 10 10 8 5 1 65 
6 10 9 7 9 5 1 66 
1 8 9 4 5 9 2 69 67 
6 7 8 5 10 8 1 68 
3 9 9 3 6 6 2 77 70 
3 7 4 6 7 5 1 70 
5 8 5 10 7 10 1 71 
5 3 5 8 8 10 1 72 
9 10 7 2 8 9 3 80 78 73 
4 7 5 8 10 3 2 85 74 
8 6 6 9 5 4 1 75 
3 8 10 8 8 4 1 76 
5 8 8 5 8 10 2 83 79 
1 8 7 6 5 9 2 90 79 
8 6 2 9 10 10 1 79 
9 10 6 8 9 10 1 81 
8 6 10 8 10 7 2 85 84 
7 8 10 8 6 6 1 82 
8 10 5 8 10 5 1 84 
6 9 6 10 5 10 3 90 88 87 
3 8 6 10 5 5 2 88 86 
8 6 9 9 8 8 1 86 
10 8 10 6 5 9 1 87 
3 5 10 3 9 9 2 96 89 
3 4 5 5 5 7 2 96 92 
2 5 10 8 10 7 1 91 
7 8 8 10 5 9 1 91 
9 10 8 10 9 7 1 92 
7 5 8 10 9 9 1 93 
9 8 10 4 8 8 2 102 94 
10 4 10 6 8 7 1 95 
3 8 7 7 10 10 1 97 
6 7 10 8 10 5 1 97 
7 9 5 10 6 4 1 98 
5 10 10 10 10 6 1 99 
7 6 9 10 3 10 1 100 
10 6 9 10 9 9 2 103 101 
6 8 8 9 10 10 1 104 
7 10 9 8 8 5 1 103 
4 10 6 10 10 8 1 105 
10 8 7 8 10 10 1 105 
0 0 0 0 0 0 1 542 
0 0 0 0 0 0 1 107 
1 4 4 2 2 6 2 117 108 
8 6 7 9 8 5 1 109 
10 8 7 10 8 3 1 110 
1 8 9 4 4 9 1 111 
6 6 6 3 9 6 2 116 112 
9 9 9 7 9 10 1 113 
10 4 6 8 5 8 1 114 
10 10 5 10 6 10 1 115 
1 7 10 8 10 7 1 118 
9 10 10 10 8 10 1 118 
7 10 10 10 4 10 1 118 
4 8 6 6 10 9 2 121 119 
5 10 9 10 10 8 1 120 
1 8 8 5 10 8 3 131 122 446 
3 5 7 10 10 6 1 122 
2 4 7 9 10 6 1 123 
5 6 10 5 10 4 1 124 
2 6 5 4 5 6 3 135 130 125 
7 5 7 6 8 7 2 137 126 
3 9 3 10 7 9 1 127 
8 7 8 6 9 10 1 128 
5 8 5 10 8 9 2 136 129 
8 4 10 8 7 5 1 132 
5 10 4 6 6 7 1 132 
2 7 10 8 10 6 1 132 
5 10 10 10 8 10 1 133 
7 10 3 10 10 7 1 134 
3 4 4 8 10 4 2 140 138 
4 10 10 7 8 10 1 137 
7 9 9 10 6 6 3 151 142 139 
2 10 6 10 10 5 1 138 
8 10 7 10 8 10 2 151 139 
2 10 10 7 7 6 1 141 
10 6 7 9 4 10 2 151 144 
9 4 7 4 8 9 1 143 
10 6 3 10 5 6 1 143 
7 10 10 5 4 6 1 144 
5 10 10 5 5 6 1 145 
3 6 6 8 10 10 2 156 146 
4 10 10 9 10 10 1 147 
4 9 8 5 5 3 1 148 
5 7 6 3 9 10 1 149 
5 6 8 7 10 10 1 150 
5 6 10 9 5 5 1 152 
1 8 7 9 7 8 1 152 
6 8 10 9 10 9 2 155 153 
5 10 10 9 5 10 1 154 
9 4 10 8 3 10 1 157 
8 8 2 6 8 5 1 157 
10 5 10 4 7 6 1 157 
0 0 0 0 0 0 1 542 
0 0 0 0 0 0 2 159 262 
10 0 0 1 0 0 2 165 160 
2 0 0 10 0 0 2 168 161 
7 0 0 8 0 0 1 162 
7 0 0 7 0 0 2 167 163 
3 0 0 10 0 0 1 164 
7 0 0 9 0 0 1 166 
1 0 0 10 0 0 1 167 
5 0 0 8 0 0 1 169 
7 0 0 4 0 0 1 169 
1 0 0 8 0 0 1 169 
0 0 0 0 0 0 4 170 212 254 266 
0 0 0 0 0 0 3 171 174 176 
3 4 4 0 2 4 1 172 
5 10 8 0 7 7 1 173 
4 8 8 0 9 7 1 175 
5 10 10 0 8 9 1 175 
9 8 6 0 9 5 1 177 
9 10 10 0 8 7 1 177 
6 8 4 0 10 10 1 178 
1 3 9 0 5 7 1 179 
2 10 6 0 7 5 2 182 180 
6 5 6 0 3 6 1 181 
4 8 8 0 7 10 1 183 
9 7 10 0 10 5 1 183 
6 2 8 0 7 3 1 184 
5 8 4 0 8 6 1 185 
5 9 10 0 7 6 1 186 
8 5 9 0 10 10 2 189 187 
4 8 7 0 9 5 2 191 188 
2 8 10 0 9 9 1 190 
8 6 6 0 10 10 3 210 197 193 
10 10 4 0 7 9 2 210 192 
7 9 10 0 7 10 2 210 194 
3 7 5 0 9 6 1 193 
9 9 5 0 5 10 1 194 
10 9 9 0 8 6 1 195 
2 10 6 0 8 7 1 196 
9 8 10 0 7 10 3 205 204 198 
5 4 7 0 9 10 2 204 198 
10 9 4 0 6 10 1 199 
4 3 9 0 5 5 2 209 200 
4 7 9 0 9 10 1 201 
2 9 9 0 10 6 1 202 
1 8 8 0 7 5 1 203 
6 8 9 0 8 4 1 206 
6 10 10 0 8 10 1 206 
3 9 6 0 1 10 1 206 
2 5 9 0 10 8 1 207 
3 10 6 0 9 10 1 208 
8 9 6 0 10 10 1 211 
6 6 7 0 7 6 1 211 
1 4 9 0 5 7 1 211 
0 0 0 0 0 0 1 542 
0 0 0 0 0 0 3 213 251 252 
6 5 0 4 3 2 1 214 
6 5 0 7 10 9 1 215 
2 4 0 6 7 8 1 216 
2 8 0 6 9 10 1 217 
2 10 0 8 10 6 2 250 218 
7 7 0 4 7 8 1 219 
8 8 0 9 9 7 1 220 
7 7 0 8 4 8 2 249 221 
10 7 0 3 6 8 1 222 
6 4 0 7 2 10 1 223 
9 10 0 10 6 3 1 224 
4 8 0 9 10 8 2 248 225 
3 10 0 8 10 10 2 247 226 
10 8 0 10 6 7 2 246 227 
10 6 0 7 6 8 1 228 
8 7 0 9 10 6 1 229 
5 7 0 10 8 10 1 230 
8 7 0 9 8 3 1 231 
5 6 0 10 8 10 2 245 232 
8 10 0 5 9 6 3 244 243 233 
1 9 0 5 8 6 1 234 
10 9 0 10 7 8 1 235 
1 10 0 7 10 9 1 236 
10 4 0 7 10 7 1 237 
1 8 0 6 9 10 1 238 
1 4 0 9 10 10 1 239 
10 8 0 4 6 7 1 240 
3 7 0 9 10 6 1 241 
1 9 0 9 4 6 1 242 
3 10 0 8 5 10 1 253 
10 5 0 9 10 7 1 253 
4 10 0 6 3 7 1 253 
9 6 0 3 8 7 1 253 
5 7 0 10 10 10 1 253 
3 8 0 6 9 9 1 253 
5 7 0 7 6 5 1 253 
6 8 0 9 6 5 1 253 
8 10 0 10 9 9 1 253 
1 7 0 10 4 9 1 253 
2 10 0 7 8 6 1 253 
0 0 0 0 0 0 1 542 
0 0 0 0 0 0 1 255 
4 0 3 0 0 0 1 256 
1 0 6 0 0 0 2 262 257 
2 0 9 0 0 0 2 261 258 
1 0 7 0 0 0 2 263 259 
1 0 10 0 0 0 1 260 
9 0 7 0 0 0 1 264 
7 0 7 0 0 0 1 263 
1 0 8 0 0 0 1 263 
10 0 10 0 0 0 1 265 
3 0 8 0 0 0 1 265 
0 0 0 0 0 0 4 308 320 352 384 
0 0 0 0 0 0 3 267 270 271 
7 1 7 4 2 0 1 268 
4 10 3 9 10 0 1 269 
3 8 7 10 9 0 1 272 
10 10 10 10 9 0 1 272 
9 4 7 8 10 0 1 272 
4 7 10 7 10 0 1 273 
8 8 4 7 5 0 1 274 
10 3 7 9 7 0 1 275 
7 8 10 10 5 0 2 278 276 
1 10 8 4 7 0 1 277 
7 8 10 4 8 0 1 279 
9 9 7 3 10 0 1 279 
5 4 8 10 9 0 1 280 
3 4 10 6 5 0 1 281 
9 5 9 8 8 0 1 282 
6 8 8 8 8 0 2 285 283 
1 10 9 8 10 0 3 290 288 284 
2 8 10 7 9 0 1 286 
9 10 9 10 6 0 2 290 289 
1 10 5 7 9 0 1 287 
10 9 5 7 5 0 1 289 
2 7 9 10 9 0 1 289 
3 7 10 6 10 0 2 298 291 
10 6 4 7 8 0 2 298 293 
1 6 9 5 6 0 1 292 
3 8 7 9 8 0 1 293 
10 10 10 10 9 0 2 297 294 
1 9 5 7 10 0 1 295 
3 10 10 5 3 0 1 296 
6 8 6 6 7 0 2 303 299 
5 5 4 10 7 0 2 300 299 
10 8 9 10 9 0 2 303 302 
7 4 8 10 10 0 1 301 
4 4 5 10 8 0 1 301 
6 9 7 4 5 0 1 302 
2 8 9 6 4 0 1 304 
6 10 5 10 6 0 1 304 
5 10 7 5 8 0 1 305 
6 7 4 8 4 0 1 306 
4 10 9 6 8 0 1 307 
0 0 0 0 0 0 1 542 
0 0 0 0 0 0 1 309 
10 4 0 0 0 0 1 310 
7 5 0 0 0 0 1 311 
6 6 0 0 0 0 2 314 312 
3 8 0 0 0 0 1 313 
9 10 0 0 0 0 3 318 316 315 
7 10 0 0 0 0 2 318 317 
3 7 0 0 0 0 1 317 
3 10 0 0 0 0 1 317 
10 10 0 0 0 0 1 319 
3 5 0 0 0 0 1 319 
0 0 0 0 0 0 4 416 428 450 472 
0 0 0 0 0 0 2 321 350 
6 5 2 3 0 0 1 322 
9 9 4 10 0 0 1 323 
2 4 6 6 0 0 1 324 
10 6 5 7 0 0 1 325 
2 10 10 9 0 0 2 349 326 
4 2 8 7 0 0 1 327 
8 4 9 7 0 0 6 348 347 346 345 344 328 
9 10 9 6 0 0 1 329 
9 6 9 7 0 0 1 330 
3 10 7 10 0 0 1 331 
6 10 6 10 0 0 1 332 
6 9 6 10 0 0 2 343 333 
1 10 7 5 0 0 1 334 
3 9 10 3 0 0 1 335 
8 8 10 6 0 0 1 336 
10 6 5 4 0 0 1 337 
5 5 6 7 0 0 1 338 
4 10 10 10 0 0 1 339 
2 2 10 10 0 0 1 340 
6 9 5 9 0 0 1 341 
8 7 7 10 0 0 1 342 
4 8 9 9 0 0 1 351 
5 8 10 9 0 0 1 351 
7 10 9 8 0 0 1 351 
4 6 7 9 0 0 1 351 
3 9 8 10 0 0 1 351 
3 8 7 8 0 0 1 351 
1 8 5 8 0 0 1 351 
4 7 9 3 0 0 1 351 
6 10 10 5 0 0 1 351 
0 0 0 0 0 0 1 542 
0 0 0 0 0 0 2 353 359 
6 2 0 0 3 3 1 354 
10 7 0 0 5 9 1 355 
4 10 0 0 7 8 1 356 
6 3 0 0 7 7 1 357 
4 4 0 0 7 8 2 364 358 
4 10 0 0 6 8 1 360 
5 9 0 0 3 7 1 360 
1 10 0 0 5 7 1 361 
4 8 0 0 6 6 3 366 365 362 
1 6 0 0 4 9 2 368 363 
10 10 0 0 10 10 3 371 370 367 
5 10 0 0 7 6 3 371 370 367 
2 7 0 0 10 4 2 370 367 
7 9 0 0 7 10 2 370 367 
5 6 0 0 10 8 1 369 
3 10 0 0 10 10 1 369 
5 4 0 0 8 8 1 372 
9 10 0 0 8 10 1 372 
9 7 0 0 6 7 1 372 
1 9 0 0 10 10 1 373 
6 10 0 0 9 10 1 374 
10 5 0 0 10 8 2 378 375 
9 10 0 0 10 2 1 376 
6 8 0 0 8 8 1 377 
5 5 0 0 10 4 1 379 
10 8 0 0 5 9 1 379 
5 5 0 0 10 8 1 380 
1 5 0 0 8 9 1 381 
2 9 0 0 7 7 1 382 
8 9 0 0 9 5 1 383 
0 0 0 0 0 0 1 542 
0 0 0 0 0 0 2 385 414 
7 0 0 5 4 9 1 386 
2 0 0 9 7 10 1 387 
9 0 0 4 2 9 1 388 
4 0 0 6 9 8 1 389 
5 0 0 10 8 9 2 413 390 
3 0 0 4 8 2 1 391 
6 0 0 10 9 6 1 392 
10 0 0 10 6 6 5 412 411 404 398 393 
8 0 0 8 6 10 1 394 
7 0 0 6 8 10 2 400 395 
1 0 0 10 4 8 1 396 
9 0 0 8 8 6 1 397 
9 0 0 10 6 5 1 399 
4 0 0 7 8 4 1 400 
9 0 0 6 9 10 1 401 
3 0 0 6 9 10 1 401 
8 0 0 10 7 10 2 410 402 
2 0 0 5 10 6 1 403 
5 0 0 4 9 9 1 405 
3 0 0 10 8 10 1 405 
10 0 0 10 8 6 1 406 
6 0 0 5 8 4 1 407 
7 0 0 4 5 10 1 408 
9 0 0 10 8 9 1 409 
6 0 0 10 10 6 1 415 
5 0 0 7 8 7 1 415 
10 0 0 7 10 8 1 415 
10 0 0 6 9 6 1 415 
4 0 0 10 8 7 1 415 
6 0 0 8 6 5 1 415 
0 0 0 0 0 0 1 542 
0 0 0 0 0 0 3 417 423 426 
2 0 3 0 0 0 2 425 418 
10 0 6 0 0 0 1 419 
3 0 8 0 0 0 1 420 
3 0 6 0 0 0 1 421 
1 0 10 0 0 0 1 422 
1 0 10 0 0 0 1 424 
5 0 8 0 0 0 1 425 
1 0 8 0 0 0 1 427 
1 0 8 0 0 0 1 427 
4 0 8 0 0 0 1 427 
0 0 0 0 0 0 4 494 506 518 530 
0 0 0 0 0 0 3 429 440 448 
5 0 1 0 0 6 1 430 
6 0 8 0 0 5 2 438 431 
1 0 8 0 0 7 1 432 
2 0 8 0 0 10 2 447 433 
4 0 8 0 0 10 1 434 
8 0 8 0 0 5 2 446 435 
5 0 4 0 0 5 1 436 
2 0 6 0 0 10 1 437 
7 0 10 0 0 10 1 439 
7 0 10 0 0 6 1 439 
9 0 7 0 0 9 1 441 
4 0 9 0 0 6 1 441 
6 0 6 0 0 10 1 442 
10 0 5 0 0 8 1 443 
6 0 10 0 0 2 1 444 
6 0 10 0 0 7 1 445 
10 0 10 0 0 6 1 449 
4 0 3 0 0 10 1 449 
1 0 9 0 0 10 1 449 
7 0 10 0 0 8 1 449 
0 0 0 0 0 0 1 542 
0 0 0 0 0 0 4 451 468 469 470 
7 0 2 0 6 0 1 452 
10 0 9 0 3 0 1 453 
4 0 6 0 10 0 2 467 454 
6 0 9 0 6 0 1 455 
7 0 5 0 7 0 2 466 456 
3 0 8 0 10 0 1 457 
2 0 10 0 5 0 1 458 
3 0 9 0 8 0 1 459 
3 0 4 0 5 0 1 460 
3 0 9 0 10 0 1 461 
6 0 8 0 8 0 1 462 
9 0 4 0 8 0 1 463 
4 0 7 0 10 0 1 464 
3 0 8 0 9 0 1 465 
4 0 9 0 10 0 1 471 
1 0 8 0 9 0 1 471 
9 0 9 0 9 0 1 471 
9 0 9 0 7 0 1 471 
6 0 8 0 6 0 1 471 
5 0 9 0 4 0 1 471 
0 0 0 0 0 0 1 542 
0 0 0 0 0 0 2 473 474 
4 0 0 5 3 0 2 479 476 
1 0 0 7 8 0 2 477 475 
2 0 0 5 10 0 2 479 478 
5 0 0 9 7 0 1 477 
4 0 0 10 4 0 1 478 
3 0 0 7 5 0 1 480 
2 0 0 9 5 0 1 480 
10 0 0 5 9 0 1 481 
10 0 0 6 10 0 2 484 482 
1 0 0 4 4 0 1 483 
9 0 0 5 10 0 1 485 
3 0 0 10 10 0 1 485 
9 0 0 8 10 0 1 486 
4 0 0 10 9 0 2 491 487 
8 0 0 9 7 0 1 488 
1 0 0 8 7 0 1 489 
6 0 0 4 10 0 1 490 
8 0 0 10 8 0 1 492 
3 0 0 9 7 0 1 492 
6 0 0 10 7 0 1 493 
0 0 0 0 0 0 1 542 
0 0 0 0 0 0 2 495 498 
5 0 0 6 0 0 1 496 
3 0 0 4 0 0 2 504 497 
6 0 0 10 0 0 1 499 
7 0 0 10 0 0 1 499 
3 0 0 5 0 0 1 500 
4 0 0 10 0 0 2 503 501 
10 0 0 5 0 0 1 502 
7 0 0 7 0 0 1 505 
2 0 0 8 0 0 1 505 
3 0 0 10 0 0 1 505 
0 0 0 0 0 0 1 542 
0 0 0 0 0 0 4 507 509 515 516 
1 0 0 0 0 2 1 508 
2 0 0 0 0 8 1 510 
10 0 0 0 0 10 1 510 
5 0 0 0 0 6 1 511 
8 0 0 0 0 3 1 512 
7 0 0 0 0 8 1 513 
7 0 0 0 0 10 1 514 
10 0 0 0 0 10 1 517 
10 0 0 0 0 8 1 517 
3 0 0 0 0 10 1 517 
0 0 0 0 0 0 1 542 
0 0 0 0 0 0 3 519 522 528 
8 0 2 0 0 0 1 520 
8 0 9 0 0 0 1 521 
10 0 3 0 0 0 1 523 
7 0 6 0 0 0 2 527 525 
6 0 10 0 0 0 1 524 
8 0 7 0 0 0 1 525 
2 0 9 0 0 0 1 526 
10 0 9 0 0 0 1 529 
10 0 10 0 0 0 1 529 
9 0 10 0 0 0 1 529 
0 0 0 0 0 0 1 542 
0 0 0 0 0 0 4 531 533 535 537 
2 0 0 0 0 2 1 532 
4 0 0 0 0 5 1 534 
1 0 0 0 0 10 1 534 
9 0 0 0 0 10 1 536 
5 0 0 0 0 7 1 536 
9 0 0 0 0 4 1 538 
6 0 0 0 0 9 1 538 
2 0 0 0 0 10 1 539 
2 0 0 0 0 8 1 540 
4 0 0 0 0 10 1 541 
0 0 0 0 0 0 1 542 
0 0 0 0 0 0 0 
